20
587 233 220
62 59 52
54 52 50
102 69 65
97 76 46
52 50 37
93 85 23
90 38 38
66 60 40
38 31 26
86 60 36
92 47 34
103 69 22
79 71 42
66 33 20
100 93 45
91 84 21
92 47 29
76 55 40
98 90 53
81 75 53
thpack7_28